\* Source Pyomo model name=unknown *\

min
x1:
+10.0 x2
+12.5 x3
+10.0 x4
+12.5 x5
+10.0 x6
+12.5 x7
+10.0 x8
+12.5 x9
+10.0 x10
+12.5 x11

s.t.

c_e_x12_:
+1 x2
+1 x3
+1 x13
-1 x14
= 50.0

c_e_x15_:
+1 x4
+1 x5
+1 x16
-1 x17
= 75.0

c_e_x18_:
+1 x6
+1 x7
+1 x19
-1 x20
= 100.0

c_e_x21_:
+1 x8
+1 x9
+1 x22
-1 x23
= 125.0

c_e_x24_:
+1 x10
+1 x11
+1 x25
-1 x26
= 150.0

c_u_x27_:
+1 x2
<= 100.0

c_u_x28_:
+1 x3
<= 150.0

c_u_x29_:
+1 x4
<= 100.0

c_u_x30_:
+1 x5
<= 150.0

c_u_x31_:
+1 x6
<= 100.0

c_u_x32_:
+1 x7
<= 150.0

c_u_x33_:
+1 x8
<= 100.0

c_u_x34_:
+1 x9
<= 150.0

c_u_x35_:
+1 x10
<= 100.0

c_u_x36_:
+1 x11
<= 150.0

c_u_x37_:
+1 x14
-200.0 x38
<= 0

c_u_x39_:
+1 x17
-200.0 x40
<= 0

c_u_x41_:
+1 x20
-200.0 x42
<= 0

c_u_x43_:
+1 x23
-200.0 x44
<= 0

c_u_x45_:
+1 x26
-200.0 x46
<= 0

c_u_x47_:
+1 x13
+200.0 x38
<= 200.0

c_u_x48_:
+1 x16
+200.0 x40
<= 200.0

c_u_x49_:
+1 x19
+200.0 x42
<= 200.0

c_u_x50_:
+1 x22
+200.0 x44
<= 200.0

c_u_x51_:
+1 x25
+200.0 x46
<= 200.0

c_e_x52_:
+1 x13
-1 x14
+1 x53
= 100.0

c_e_x54_:
+1 x16
-1 x17
-1 x53
+1 x55
= 0

c_e_x56_:
+1 x19
-1 x20
-1 x55
+1 x57
= 0

c_e_x58_:
+1 x22
-1 x23
-1 x57
+1 x59
= 0

c_e_x60_:
+1 x25
-1 x26
-1 x59
+1 x61
= 0

r_l_x62_:
+1 x53
>= 0

r_u_x62_:
+1 x53
<= 100.0

r_l_x63_:
+1 x55
>= 0

r_u_x63_:
+1 x55
<= 100.0

r_l_x64_:
+1 x57
>= 0

r_u_x64_:
+1 x57
<= 100.0

r_l_x65_:
+1 x59
>= 0

r_u_x65_:
+1 x59
<= 100.0

r_l_x66_:
+1 x61
>= 0

r_u_x66_:
+1 x61
<= 100.0

c_e_x67_:
+1 x61
= 50.0

bounds
   0 <= x2 <= +inf
   0 <= x3 <= +inf
   0 <= x4 <= +inf
   0 <= x5 <= +inf
   0 <= x6 <= +inf
   0 <= x7 <= +inf
   0 <= x8 <= +inf
   0 <= x9 <= +inf
   0 <= x10 <= +inf
   0 <= x11 <= +inf
   0 <= x13 <= +inf
   0 <= x16 <= +inf
   0 <= x19 <= +inf
   0 <= x22 <= +inf
   0 <= x25 <= +inf
   0 <= x14 <= +inf
   0 <= x17 <= +inf
   0 <= x20 <= +inf
   0 <= x23 <= +inf
   0 <= x26 <= +inf
   0 <= x38 <= 1
   0 <= x40 <= 1
   0 <= x42 <= 1
   0 <= x44 <= 1
   0 <= x46 <= 1
   0 <= x53 <= +inf
   0 <= x55 <= +inf
   0 <= x57 <= +inf
   0 <= x59 <= +inf
   0 <= x61 <= +inf
binary
  x38
  x40
  x42
  x44
  x46
end
